data/solutions/planning/wellformed/intermediate/highest_rank_objective/wellformed_intermediate_instance63_cplex.sol
Elapsed time: 23.34
Nodes explored: 3275
Nodes left: -
Relative gap: -
Upper bound: 355592608.0
Lower bound: -
C[0]=21705.0
C[1]=21705.0
C[2]=21705.0
C[3]=21705.0
C[4]=21705.0
C[5]=21705.0
C[6]=21704.0
C[7]=21703.0
C[8]=21703.0
C[9]=21703.0
C[10]=21702.0
C[11]=21702.0
C[12]=21702.0
C[13]=21692.0
y[0]=7
y[1]=3
y[2]=11
y[3]=7
y[4]=3
y[5]=6
y[6]=0
y[7]=10
y[8]=10
y[9]=4
y[10]=5
y[11]=3
y[12]=3
y[13]=4
y[14]=0
y[15]=7
y[16]=2
y[17]=10
y[18]=13
y[19]=5
y[20]=5
y[21]=7
y[22]=10
y[23]=9
y[24]=11
y[25]=10
y[26]=5
y[27]=11
y[28]=4
y[29]=11
y[30]=5
y[31]=11
y[32]=6
y[33]=8
y[34]=5
y[35]=4
y[36]=9
y[37]=2
y[38]=6
y[39]=7
y[40]=10
y[41]=12
y[42]=3
y[43]=3
y[44]=10
y[45]=1
y[46]=13
y[47]=8
y[48]=3
y[49]=11
y[50]=3
y[51]=10
y[52]=1
y[53]=4
y[54]=6
y[55]=3
y[56]=7
y[57]=1
y[58]=13
y[59]=8
y[60]=10
y[61]=11
y[62]=4
y[63]=7
y[64]=3
y[65]=3
y[66]=12
y[67]=3
y[68]=2
y[69]=3
y[70]=0
y[71]=3
y[72]=3
y[73]=10
y[74]=12
y[75]=11
y[76]=5
y[77]=0
y[78]=7
y[79]=3
y[80]=8
y[81]=10
y[82]=6
y[83]=4
y[84]=8
y[85]=1
y[86]=2
y[87]=3
y[88]=3
y[89]=3
y[90]=6
y[91]=1
y[92]=4
y[93]=3
y[94]=4
y[95]=13
y[96]=1
y[97]=4
y[98]=4
y[99]=4
y[100]=4
y[101]=3
y[102]=4
y[103]=3
y[104]=12
y[105]=12
y[106]=4
y[107]=6
y[108]=3
y[109]=9
y[110]=4
y[111]=3
y[112]=6
y[113]=6
y[114]=12
y[115]=5
y[116]=1
y[117]=4
y[118]=5
y[119]=11
y[120]=2
y[121]=12
y[122]=4
y[123]=1
y[124]=7
y[125]=12
y[126]=3
y[127]=11
y[128]=8
y[129]=10
y[130]=2
y[131]=7
y[132]=2
y[133]=0
y[134]=3
y[135]=10
y[136]=3
y[137]=13
y[138]=4
y[139]=11
y[140]=9
y[141]=0
y[142]=6
y[143]=9
y[144]=1
y[145]=4
y[146]=13
y[147]=9
y[148]=3
y[149]=5
y[150]=3
y[151]=10
y[152]=0
y[153]=9
y[154]=8
y[155]=6
y[156]=5
y[157]=3
y[158]=0
y[159]=8
y[160]=2
y[161]=13
y[162]=13
y[163]=8
y[164]=8
y[165]=9
y[166]=3
y[167]=6
y[168]=5
y[169]=6
y[170]=8
y[171]=3
y[172]=6
y[173]=13
y[174]=9
y[175]=6
y[176]=3
y[177]=3
y[178]=3
y[179]=12
y[180]=7
y[181]=4
y[182]=3
y[183]=13
y[184]=4
y[185]=1
y[186]=8
y[187]=3
y[188]=4
y[189]=2
y[190]=13
y[191]=3
y[192]=1
y[193]=1
y[194]=3
y[195]=0
y[196]=1
y[197]=7
y[198]=9
y[199]=3
y[200]=8
y[201]=11
y[202]=5
y[203]=1
y[204]=3
y[205]=3
y[206]=13
y[207]=12
y[208]=13
y[209]=7
y[210]=4
y[211]=7
y[212]=8
y[213]=5
y[214]=7
y[215]=3
y[216]=1
y[217]=10
y[218]=4
y[219]=4
y[220]=0
y[221]=3
y[222]=10
y[223]=3
y[224]=12
y[225]=1
y[226]=2
y[227]=13
y[228]=3
y[229]=6
y[230]=6
y[231]=11
y[232]=5
y[233]=6
y[234]=4
y[235]=9
y[236]=8
y[237]=6
y[238]=3
y[239]=5
y[240]=9
y[241]=10
y[242]=3
y[243]=1
y[244]=11
y[245]=4
y[246]=2
y[247]=6
y[248]=0
y[249]=12
y[250]=13
y[251]=0
y[252]=3
y[253]=3
y[254]=9
y[255]=12
y[256]=4
y[257]=8
y[258]=6
y[259]=0
y[260]=3
y[261]=6
y[262]=4
y[263]=5
y[264]=3
y[265]=4
y[266]=1
y[267]=9
y[268]=3
y[269]=5
y[270]=1
y[271]=0
y[272]=7
y[273]=3
y[274]=2
y[275]=3
y[276]=4
y[277]=7
y[278]=6
y[279]=7
y[280]=4
y[281]=7
y[282]=3
y[283]=0
y[284]=2
y[285]=2
y[286]=0
y[287]=9
y[288]=3
y[289]=3
y[290]=3
y[291]=0
y[292]=5
y[293]=3
y[294]=10
y[295]=10
y[296]=1
y[297]=12
y[298]=5
y[299]=6
