data/solutions/planning/wellformed/intermediate/highest_rank_objective/wellformed_intermediate_instance63_cplex.log
Found incumbent of value 303841.000000 after 0.00 sec. (0.34 ticks)
Tried aggregator 2 times.
Aggregator did 14 substitutions.
Reduced MIP has 314 rows, 4201 columns, and 8414 nonzeros.
Reduced MIP has 4200 binaries, 0 generals, 0 SOSs, and 0 indicators.
Presolve time = 0.01 sec. (6.42 ticks)
Tried aggregator 1 time.
Reduced MIP has 314 rows, 4201 columns, and 8414 nonzeros.
Reduced MIP has 4200 binaries, 1 generals, 0 SOSs, and 0 indicators.
Presolve time = 0.00 sec. (4.22 ticks)
Probing time = 0.00 sec. (2.10 ticks)
Clique table members: 300.
MIP emphasis: balance optimality and feasibility.
MIP search method: dynamic search.
Parallel mode: none, using 1 thread.
Root relaxation solution time = 0.01 sec. (15.78 ticks)

        Nodes                                         Cuts/
   Node  Left     Objective  IInf  Best Integer    Best Bound    ItCnt     Gap

*     0+    0                       303841.0000        0.0000           100.00%
      0     0    21702.9286    26   303841.0000    21702.9286      279   92.86%
*     0+    0                        23138.0000    21702.9286             6.20%
      0     0    21703.0000    26    23138.0000       Cuts: 6      308    6.20%
*     0+    0                        23126.0000    21703.0000             6.15%
      0     0    21703.0000    32    23126.0000      Cuts: 25      360    6.15%
*     0+    0                        22573.0000    21703.0000             3.85%
*     0+    0                        22538.0000    21703.0000             3.70%
*     0+    0                        22333.0000    21703.0000             2.82%
*     0+    0                        22276.0000    21703.0000             2.57%
*     0+    0                        22273.0000    21703.0000             2.56%
*     0+    0                        22138.0000    21703.0000             1.96%
*     0+    0                        22127.0000    21703.0000             1.92%
*     0+    0                        22082.0000    21703.0000             1.72%
*     0+    0                        22054.0000    21703.0000             1.59%
*     0+    0                        22002.0000    21703.0000             1.36%
*     0+    0                        21961.0000    21703.0000             1.17%
*     0+    0                        21953.0000    21703.0000             1.14%
*     0+    0                        21907.0000    21703.0000             0.93%
*     0+    0                        21898.0000    21703.0000             0.89%
*     0+    0                        21894.0000    21703.0000             0.87%
*     0+    0                        21877.0000    21703.0000             0.80%
*     0+    0                        21810.0000    21703.0000             0.49%
*     0+    0                        21789.0000    21703.0000             0.39%
*     0+    0                        21785.0000    21703.0000             0.38%
*     0+    0                        21782.0000    21703.0000             0.36%
*     0+    0                        21772.0000    21703.0000             0.32%
      0     2    21703.0000    22    21772.0000    21703.0000      366    0.32%
Elapsed time = 0.38 sec. (424.35 ticks, tree = 0.01 MB, solutions = 24)
    150   152    21703.0000    20    21772.0000    21703.0000     1527    0.32%
    151   153    21703.0000    19    21772.0000    21703.0000     1543    0.32%
    152   154    21703.0000    21    21772.0000    21703.0000     1555    0.32%
    153   155    21703.0000    20    21772.0000    21703.0000     1557    0.32%
    154   156    21703.0000    19    21772.0000    21703.0000     1568    0.32%
    155   157    21703.0000    20    21772.0000    21703.0000     1578    0.32%
    156   158    21703.0000    20    21772.0000    21703.0000     1580    0.32%
    157   159    21703.0000    21    21772.0000    21703.0000     1588    0.32%
    158   160    21703.0000    19    21772.0000    21703.0000     1592    0.32%
    507   509    21703.0000    21    21772.0000    21703.0000     3807    0.32%
Elapsed time = 1.37 sec. (1657.89 ticks, tree = 3.12 MB, solutions = 24)
*   607+  408                        21770.0000    21703.0000             0.31%
    741   485    21703.0000    21    21770.0000    21703.0000     5308    0.31%
    742   485    21703.0000    21    21770.0000    21703.0000     5312    0.31%
    743   486    21703.0000    22    21770.0000    21703.0000     5316    0.31%
    744   487    21703.0000    21    21770.0000    21703.0000     5323    0.31%
    745   487    21703.0000    21    21770.0000    21703.0000     5332    0.31%
    746   487    21703.0000    20    21770.0000    21703.0000     5338    0.31%
*   747+  404                        21767.0000    21703.0000             0.29%
    747   406    21703.0000    20    21767.0000    21703.0000     5342    0.29%
    748   407    21703.0000    20    21767.0000    21703.0000     5358    0.29%
    749   407    21703.0000    20    21767.0000    21703.0000     5362    0.29%
    750   408    21703.0000    20    21767.0000    21703.0000     5371    0.29%
Elapsed time = 2.10 sec. (2647.12 ticks, tree = 2.39 MB, solutions = 26)
*   797+  383                        21760.0000    21703.0000             0.26%
*   807+  358                        21755.0000    21703.0000             0.24%
*   887+  390                        21750.0000    21703.0000             0.22%
*   907+  401                        21749.0000    21703.0000             0.21%
*   917+  407                        21746.0000    21703.0000             0.20%
*   937+  424                        21741.0000    21703.0000             0.17%
*   947+  429                        21730.0000    21703.0000             0.12%
*   987+  462                        21725.0000    21703.0000             0.10%
*  1007+  482                        21723.0000    21703.0000             0.09%
*  1017+  492                        21722.0000    21703.0000             0.09%
*  1027+  499                        21721.0000    21703.0000             0.08%
*  1047+  518                        21720.0000    21703.0000             0.08%
*  1087+  552                        21715.0000    21703.0000             0.06%
   1107   572    21704.0000    18    21715.0000    21703.0000     6756    0.06%
   1108   573    21704.0000    18    21715.0000    21703.0000     6757    0.06%
   1109   574    21704.0000    18    21715.0000    21703.0000     6758    0.06%
   1110   575    21704.0000    16    21715.0000    21703.0000     6759    0.06%
   1111   576    21704.0000    17    21715.0000    21703.0000     6767    0.06%
   1112   577    21704.0000    16    21715.0000    21703.0000     6769    0.06%
   1113   578    21704.0000    16    21715.0000    21703.0000     6771    0.06%
   1114   579    21704.0000    15    21715.0000    21703.0000     6778    0.06%
   1115   580    21704.0000    16    21715.0000    21703.0000     6786    0.06%
   1116   581    21704.0000    18    21715.0000    21703.0000     6790    0.06%
Elapsed time = 2.82 sec. (3691.96 ticks, tree = 3.43 MB, solutions = 39)
*  1211+  658                        21713.0000    21703.0000             0.05%
*  1211+  652                        21711.0000    21703.0000             0.04%
   1447   890    21705.0000    15    21711.0000    21703.0000     8145    0.04%
   1448   891    21705.0000    15    21711.0000    21703.0000     8146    0.04%
   1449   892    21705.0000    17    21711.0000    21703.0000     8148    0.04%
   1450   893    21705.0000    15    21711.0000    21703.0000     8152    0.04%
   1451   894    21705.0000    17    21711.0000    21703.0000     8154    0.04%
   1452   895    21705.0000    19    21711.0000    21703.0000     8163    0.04%
   1453   896    21705.0000    17    21711.0000    21703.0000     8164    0.04%
   1454   897    21705.0000    17    21711.0000    21703.0000     8169    0.04%
   1455   898    21705.0000    20    21711.0000    21703.0000     8179    0.04%
   1456   899    21705.0000    17    21711.0000    21703.0000     8182    0.04%
Elapsed time = 3.54 sec. (4657.11 ticks, tree = 5.36 MB, solutions = 41)
*  1547   978      integral     0    21710.0000    21703.0000     8502    0.03%
*  1554   977      integral     0    21709.0000    21703.0000     8516    0.03%
*  1557   972      integral     0    21708.0000    21703.0000     8519    0.02%
   1946  1354    21704.0000    17    21708.0000    21703.0000    10246    0.02%
   1947  1355    21704.0000    17    21708.0000    21703.0000    10248    0.02%
   1948  1356    21704.0000    17    21708.0000    21703.0000    10250    0.02%
   1949  1357    21704.0000    17    21708.0000    21703.0000    10251    0.02%
   1950  1358    21704.0000    16    21708.0000    21703.0000    10260    0.02%
   1951  1359    21704.0000    16    21708.0000    21703.0000    10268    0.02%
   1952  1360    21704.0000    16    21708.0000    21703.0000    10271    0.02%
   1953  1361    21704.0000    15    21708.0000    21703.0000    10273    0.02%
   1954  1362    21704.0000    17    21708.0000    21703.0000    10278    0.02%
   1955  1363    21704.0000    18    21708.0000    21703.0000    10281    0.02%
Elapsed time = 4.25 sec. (5630.48 ticks, tree = 8.18 MB, solutions = 44)
*  2017+ 1347                        21707.0000    21703.0000             0.02%
*  2587+ 1768                        21706.0000    21703.0000             0.01%
   2662  1832    21704.0000    14    21706.0000    21703.0000    13019    0.01%
   2663  1833    21704.0000    14    21706.0000    21703.0000    13020    0.01%
   2664  1834    21704.0000    14    21706.0000    21703.0000    13021    0.01%
   2665  1835    21704.0000    14    21706.0000    21703.0000    13022    0.01%
   2666  1836    21704.0000    13    21706.0000    21703.0000    13027    0.01%
   2667  1837    21704.0000    14    21706.0000    21703.0000    13031    0.01%
   2668  1838    21704.0000    14    21706.0000    21703.0000    13034    0.01%
   2669  1839    21704.0000    13    21706.0000    21703.0000    13037    0.01%
   2670  1840    21704.0000    14    21706.0000    21703.0000    13039    0.01%
   2671  1841    21704.0000    14    21706.0000    21703.0000    13040    0.01%
Elapsed time = 4.88 sec. (6597.42 ticks, tree = 11.07 MB, solutions = 46)
*  3042  1589      integral     0    21705.0000    21703.0000    14268    0.01%

Cover cuts applied:  1
Mixed integer rounding cuts applied:  1

Root node processing (before b&c):
  Real time             =    0.38 sec. (425.38 ticks)
Sequential b&c:
  Real time             =    4.88 sec. (6718.58 ticks)
                          ------------
Total (root+branch&cut) =    5.26 sec. (7143.96 ticks)

Populate: phase II 
Tried aggregator 2 times.
Aggregator did 14 substitutions.
Reduced MIP has 314 rows, 4201 columns, and 8414 nonzeros.
Reduced MIP has 4200 binaries, 0 generals, 0 SOSs, and 0 indicators.
Presolve time = 0.01 sec. (6.42 ticks)
Probing time = 0.00 sec. (2.10 ticks)
Clique table members: 300.
MIP emphasis: balance optimality and feasibility.
MIP search method: dynamic search.
Parallel mode: none, using 1 thread.
Root relaxation solution time = 0.01 sec. (15.78 ticks)

        Nodes                                         Cuts/
   Node  Left     Objective  IInf  Best Integer    Best Bound    ItCnt     Gap

*     0+    0                        21705.0000        0.0000           100.00%
      0     0    21702.9286    26    21705.0000    21702.9286      279    0.01%
      0     2    21703.0000    25    21705.0000    21703.0000      279    0.01%
Elapsed time = 0.30 sec. (314.75 ticks, tree = 0.01 MB, solutions = 68)
      1     3    21703.0000    25    21705.0000    21703.0000      286    0.01%
      2     4    21703.0000    26    21705.0000    21703.0000      289    0.01%
      3     5    21703.0000    25    21705.0000    21703.0000      291    0.01%
      4     6    21703.0000    23    21705.0000    21703.0000      294    0.01%
      5     7    21703.0000    23    21705.0000    21703.0000      301    0.01%
      6     8    21703.0000    23    21705.0000    21703.0000      306    0.01%
      7     9    21703.0000    23    21705.0000    21703.0000      310    0.01%
      8    10    21703.0000    23    21705.0000    21703.0000      313    0.01%
      9    11    21703.0000    22    21705.0000    21703.0000      316    0.01%
     10    12    21703.0000    22    21705.0000    21703.0000      320    0.01%
Elapsed time = 2.80 sec. (2696.54 ticks, tree = 0.05 MB, solutions = 212)
     28    30    21703.0000    20    21705.0000    21703.0000      459    0.01%
     29    31    21703.0000    22    21705.0000    21703.0000      473    0.01%
     30    32    21703.0000    20    21705.0000    21703.0000      476    0.01%
     31    33    21703.0000    19    21705.0000    21703.0000      483    0.01%
     32    34    21703.0000    20    21705.0000    21703.0000      488    0.01%
     33    35    21703.0000    21    21705.0000    21703.0000      499    0.01%
     34    36    21703.0000    19    21705.0000    21703.0000      506    0.01%
     35    37    21703.0000    23    21705.0000    21703.0000      537    0.01%
     36    38    21703.0000    19    21705.0000    21703.0000      541    0.01%
     37    39    21703.0000    19    21705.0000    21703.0000      546    0.01%
Elapsed time = 4.60 sec. (4113.66 ticks, tree = 0.20 MB, solutions = 377)
     55    57    21703.0000    19    21705.0000    21703.0000      731    0.01%
     56    58    21703.0000    19    21705.0000    21703.0000      733    0.01%
     57    59    21703.0000    19    21705.0000    21703.0000      738    0.01%
     58    60    21703.0000    18    21705.0000    21703.0000      746    0.01%
     59    61    21703.0000    21    21705.0000    21703.0000      763    0.01%
     60    62    21703.0000    19    21705.0000    21703.0000      767    0.01%
     61    63    21703.0000    18    21705.0000    21703.0000      777    0.01%
     62    64    21703.0000    21    21705.0000    21703.0000      796    0.01%
     63    65    21703.0000    19    21705.0000    21703.0000      801    0.01%
     64    66    21703.0000    18    21705.0000    21703.0000      811    0.01%
Elapsed time = 6.48 sec. (5586.13 ticks, tree = 0.35 MB, solutions = 599)
     79    81    21703.0000    20    21705.0000    21703.0000      961    0.01%
     80    82    21703.0000    20    21705.0000    21703.0000      968    0.01%
     81    83    21703.0000    19    21705.0000    21703.0000      972    0.01%
     82    84    21703.0000    20    21705.0000    21703.0000      978    0.01%
     83    85    21703.0000    18    21705.0000    21703.0000      983    0.01%
     84    86    21703.0000    19    21705.0000    21703.0000      986    0.01%
     85    87    21703.0000    19    21705.0000    21703.0000      999    0.01%
     86    88    21703.0000    19    21705.0000    21703.0000     1001    0.01%
     87    89    21703.0000    21    21705.0000    21703.0000     1024    0.01%
     88    90    21703.0000    19    21705.0000    21703.0000     1028    0.01%
Elapsed time = 8.36 sec. (7032.04 ticks, tree = 0.48 MB, solutions = 830)
    107   109    21703.0000    18    21705.0000    21703.0000     1210    0.01%
    108   110    21703.0000    18    21705.0000    21703.0000     1214    0.01%
    109   111    21703.0000    18    21705.0000    21703.0000     1224    0.01%
    110   112    21703.0000    21    21705.0000    21703.0000     1246    0.01%
    111   113    21703.0000    19    21705.0000    21703.0000     1251    0.01%
    112   114    21703.0000    18    21705.0000    21703.0000     1258    0.01%
    113   115    21703.0000    21    21705.0000    21703.0000     1275    0.01%
    114   116    21703.0000    19    21705.0000    21703.0000     1280    0.01%
    115   117    21703.0000    18    21705.0000    21703.0000     1286    0.01%
    116   118    21703.0000    19    21705.0000    21703.0000     1289    0.01%
Elapsed time = 10.18 sec. (8424.83 ticks, tree = 0.64 MB, solutions = 1056)
    139   141    21703.0000    19    21705.0000    21703.0000     1523    0.01%
    140   142    21703.0000    18    21705.0000    21703.0000     1532    0.01%
    141   143    21703.0000    21    21705.0000    21703.0000     1548    0.01%
    142   144    21703.0000    19    21705.0000    21703.0000     1551    0.01%
    143   145    21703.0000    18    21705.0000    21703.0000     1561    0.01%
    144   146    21703.0000    18    21705.0000    21703.0000     1564    0.01%
    145   147    21703.0000    18    21705.0000    21703.0000     1570    0.01%
    146   148    21703.0000    18    21705.0000    21703.0000     1576    0.01%
    147   149    21703.0000    19    21705.0000    21703.0000     1584    0.01%
    148   150    21703.0000    18    21705.0000    21703.0000     1589    0.01%
Elapsed time = 12.19 sec. (9987.15 ticks, tree = 0.82 MB, solutions = 1301)
    166   168    21703.0000    19    21705.0000    21703.0000     1737    0.01%
    167   169    21703.0000    19    21705.0000    21703.0000     1744    0.01%
    168   170    21703.0000    19    21705.0000    21703.0000     1749    0.01%
    169   171    21703.0000    20    21705.0000    21703.0000     1764    0.01%
    170   172    21703.0000    19    21705.0000    21703.0000     1767    0.01%
    171   173    21703.0000    20    21705.0000    21703.0000     1782    0.01%
    172   174    21703.0000    19    21705.0000    21703.0000     1785    0.01%
    173   175    21703.0000    19    21705.0000    21703.0000     1789    0.01%
    174   176    21703.0000    19    21705.0000    21703.0000     1791    0.01%
    175   177    21703.0000    18    21705.0000    21703.0000     1797    0.01%
Elapsed time = 14.21 sec. (11547.05 ticks, tree = 0.97 MB, solutions = 1548)
    194   196    21703.0000    19    21705.0000    21703.0000     1923    0.01%
    195   197    21703.0000    20    21705.0000    21703.0000     1933    0.01%
    196   198    21703.0000    19    21705.0000    21703.0000     1937    0.01%
    197   199    21703.0000    20    21705.0000    21703.0000     1945    0.01%
    198   200    21703.0000    19    21705.0000    21703.0000     1948    0.01%
    199   201    21703.0000    18    21705.0000    21703.0000     1951    0.01%
    200   202    21703.0000    19    21705.0000    21703.0000     1954    0.01%
    201   203    21703.0000    18    21705.0000    21703.0000     1963    0.01%
    202   204    21703.0000    19    21705.0000    21703.0000     1974    0.01%
    203   205    21703.0000    18    21705.0000    21703.0000     1977    0.01%
Elapsed time = 16.03 sec. (12956.79 ticks, tree = 1.13 MB, solutions = 1758)
    222   224    21703.0000    19    21705.0000    21703.0000     2106    0.01%
    223   225    21703.0000    18    21705.0000    21703.0000     2114    0.01%
    224   226    21703.0000    19    21705.0000    21703.0000     2129    0.01%
    225   227    21703.0000    18    21705.0000    21703.0000     2134    0.01%
    226   228    21703.0000    18    21705.0000    21703.0000     2141    0.01%
    227   229    21703.0000    19    21705.0000    21703.0000     2148    0.01%
    228   230    21703.0000    20    21705.0000    21703.0000     2159    0.01%
    229   231    21703.0000    19    21705.0000    21703.0000     2161    0.01%
    230   232    21703.0000    20    21705.0000    21703.0000     2163    0.01%
    231   233    21703.0000    20    21705.0000    21703.0000     2167    0.01%
Elapsed time = 17.92 sec. (14399.70 ticks, tree = 1.29 MB, solutions = 2033)

Root node processing (before b&c):
  Real time             =    0.36 sec. (372.40 ticks)
Sequential b&c:
  Real time             =   17.71 sec. (14157.20 ticks)
                          ------------
Total (root+branch&cut) =   18.07 sec. (14529.60 ticks)
